NAME : Unnamed.374.tour
COMMENT : Length = 374
COMMENT : Found by LKH [Keld Helsgaun] Thu Oct 02 13:46:26 2014
TYPE : TOUR
DIMENSION : 23
TOUR_SECTION
1
9
7
10
2
23
5
3
8
19
22
16
12
18
20
13
21
15
17
14
6
4
11
-1
EOF
